<number of tasks>
50

<cycle time>
1000

<order strength>
0.597


<task times>
1 140
2 172
3 116
4 381
5 489
6 204
7 198
8 140
9 80
10 255
11 125
12 63
13 29
14 57
15 244
16 97
17 427
18 154
19 577
20 255
21 314
22 47
23 560
24 266
25 114
26 97
27 280
28 48
29 187
30 138
31 65
32 138
33 116
34 541
35 231
36 160
37 54
38 69
39 300
40 134
41 247
42 256
43 521
44 565
45 200
46 323
47 168
48 101
49 290
50 536

<precedence relations>
1,10
2,42
3,5
3,6
3,7
3,8
3,9
4,5
4,7
4,9
5,10
6,10
7,10
8,42
9,10
9,11
9,12
9,13
9,14
10,15
10,16
10,17
10,18
10,19
10,20
11,42
12,20
12,42
13,20
13,21
14,23
15,22
16,22
16,23
17,21
17,22
17,23
18,21
18,22
18,23
19,38
19,43
21,28
22,28
23,24
23,25
23,26
23,27
24,28
25,28
26,28
27,29
27,30
27,31
27,32
28,33
28,34
28,35
28,36
28,37
29,43
29,50
30,39
30,40
31,37
31,44
32,41
33,43
33,44
33,45
35,41
35,42
36,39
36,40
37,38
37,45
38,42
39,42
41,43
41,44
41,45
42,46
42,47
42,48
42,49
45,50

<end>
